46
500
395	1
376	1
366	1
362	1
352	1
350	1
346	1
345	1
286	1
275	1
266	1
265	1
260	1
259	1
253	1
247	1
246	1
242	1
239	2
238	1
229	1
226	1
222	1
221	1
201	1
196	1
193	1
192	2
186	1
184	1
180	1
173	1
171	1
150	1
148	1
138	1
135	1
133	1
122	1
120	1
117	1
95	2
91	1
71	2
65	1
59	1
